p cnf 28 248
5 6 7 8 0
-5 -8 0
-5 -7 0
-5 -6 0
-6 -7 0
-6 -8 0
-6 -7 0
-7 -8 0
25 26 27 28 0
-25 -28 0
-25 -27 0
-25 -26 0
-26 -27 0
-26 -28 0
-26 -27 0
-27 -28 0
13 14 15 16 0
-13 -16 0
-13 -15 0
-13 -14 0
-14 -15 0
-14 -16 0
-14 -15 0
-15 -16 0
21 22 23 24 0
-21 -24 0
-21 -23 0
-21 -22 0
-22 -23 0
-22 -24 0
-22 -23 0
-23 -24 0
9 10 11 12 0
-9 -12 0
-9 -11 0
-9 -10 0
-10 -11 0
-10 -12 0
-10 -11 0
-11 -12 0
25 26 27 28 0
-25 -28 0
-25 -27 0
-25 -26 0
-26 -27 0
-26 -28 0
-26 -27 0
-27 -28 0
1 2 3 4 0
-1 -4 0
-1 -3 0
-1 -2 0
-2 -3 0
-2 -4 0
-2 -3 0
-3 -4 0
17 18 19 20 0
-17 -20 0
-17 -19 0
-17 -18 0
-18 -19 0
-18 -20 0
-18 -19 0
-19 -20 0
1 2 3 4 0
-1 -4 0
-1 -3 0
-1 -2 0
-2 -3 0
-2 -4 0
-2 -3 0
-3 -4 0
21 22 23 24 0
-21 -24 0
-21 -23 0
-21 -22 0
-22 -23 0
-22 -24 0
-22 -23 0
-23 -24 0
1 2 3 4 0
-1 -4 0
-1 -3 0
-1 -2 0
-2 -3 0
-2 -4 0
-2 -3 0
-3 -4 0
25 26 27 28 0
-25 -28 0
-25 -27 0
-25 -26 0
-26 -27 0
-26 -28 0
-26 -27 0
-27 -28 0
21 22 23 24 0
-21 -24 0
-21 -23 0
-21 -22 0
-22 -23 0
-22 -24 0
-22 -23 0
-23 -24 0
25 26 27 28 0
-25 -28 0
-25 -27 0
-25 -26 0
-26 -27 0
-26 -28 0
-26 -27 0
-27 -28 0
17 18 19 20 0
-17 -20 0
-17 -19 0
-17 -18 0
-18 -19 0
-18 -20 0
-18 -19 0
-19 -20 0
21 22 23 24 0
-21 -24 0
-21 -23 0
-21 -22 0
-22 -23 0
-22 -24 0
-22 -23 0
-23 -24 0
13 14 15 16 0
-13 -16 0
-13 -15 0
-13 -14 0
-14 -15 0
-14 -16 0
-14 -15 0
-15 -16 0
17 18 19 20 0
-17 -20 0
-17 -19 0
-17 -18 0
-18 -19 0
-18 -20 0
-18 -19 0
-19 -20 0
9 10 11 12 0
-9 -12 0
-9 -11 0
-9 -10 0
-10 -11 0
-10 -12 0
-10 -11 0
-11 -12 0
13 14 15 16 0
-13 -16 0
-13 -15 0
-13 -14 0
-14 -15 0
-14 -16 0
-14 -15 0
-15 -16 0
5 6 7 8 0
-5 -8 0
-5 -7 0
-5 -6 0
-6 -7 0
-6 -8 0
-6 -7 0
-7 -8 0
9 10 11 12 0
-9 -12 0
-9 -11 0
-9 -10 0
-10 -11 0
-10 -12 0
-10 -11 0
-11 -12 0
1 2 3 4 0
-1 -4 0
-1 -3 0
-1 -2 0
-2 -3 0
-2 -4 0
-2 -3 0
-3 -4 0
5 6 7 8 0
-5 -8 0
-5 -7 0
-5 -6 0
-6 -7 0
-6 -8 0
-6 -7 0
-7 -8 0
25 26 27 28 0
-25 -28 0
-25 -27 0
-25 -26 0
-26 -27 0
-26 -28 0
-26 -27 0
-27 -28 0
21 22 23 24 0
-21 -24 0
-21 -23 0
-21 -22 0
-22 -23 0
-22 -24 0
-22 -23 0
-23 -24 0
17 18 19 20 0
-17 -20 0
-17 -19 0
-17 -18 0
-18 -19 0
-18 -20 0
-18 -19 0
-19 -20 0
13 14 15 16 0
-13 -16 0
-13 -15 0
-13 -14 0
-14 -15 0
-14 -16 0
-14 -15 0
-15 -16 0
9 10 11 12 0
-9 -12 0
-9 -11 0
-9 -10 0
-10 -11 0
-10 -12 0
-10 -11 0
-11 -12 0
5 6 7 8 0
-5 -8 0
-5 -7 0
-5 -6 0
-6 -7 0
-6 -8 0
-6 -7 0
-7 -8 0
1 2 3 4 0
-1 -4 0
-1 -3 0
-1 -2 0
-2 -3 0
-2 -4 0
-2 -3 0
-3 -4 0
